c nIsolatedPIs 23
c maxPI 9
p cnf 35 79
c gate 10 3 8 0
3 -10 0
8 -10 0
-3 -8 10 0
c gate 11 4 7 0
4 -11 0
7 -11 0
-4 -7 11 0
c gate 12 10 11 0
10 -12 0
11 -12 0
-10 -11 12 0
c gate 13 1 9 0
1 -13 0
9 -13 0
-1 -9 13 0
c gate 14 2 8 0
2 -14 0
8 -14 0
-2 -8 14 0
c gate 15 3 7 0
3 -15 0
7 -15 0
-3 -7 15 0
c gate 16 -14 -15 0
-14 -16 0
-15 -16 0
14 15 16 0
c gate 17 14 15 0
14 -17 0
15 -17 0
-14 -15 17 0
c gate 18 -16 -17 0
-16 -18 0
-17 -18 0
16 17 18 0
c gate 19 13 18 0
13 -19 0
18 -19 0
-13 -18 19 0
c gate 20 -13 -18 0
-13 -20 0
-18 -20 0
13 18 20 0
c gate 21 -19 -20 0
-19 -21 0
-20 -21 0
19 20 21 0
c gate 22 3 5 0
3 -22 0
5 -22 0
-3 -5 22 0
c gate 23 4 6 0
4 -23 0
6 -23 0
-4 -6 23 0
c gate 24 -22 23 0
-22 -24 0
23 -24 0
22 -23 24 0
c gate 25 21 24 0
21 -25 0
24 -25 0
-21 -24 25 0
c gate 26 22 23 0
22 -26 0
23 -26 0
-22 -23 26 0
c gate 27 -25 -26 0
-25 -27 0
-26 -27 0
25 26 27 0
c gate 28 2 9 0
2 -28 0
9 -28 0
-2 -9 28 0
c gate 29 -10 -11 0
-10 -29 0
-11 -29 0
10 11 29 0
c gate 30 -12 -29 0
-12 -30 0
-29 -30 0
12 29 30 0
c gate 31 28 30 0
28 -31 0
30 -31 0
-28 -30 31 0
c gate 32 -28 -30 0
-28 -32 0
-30 -32 0
28 30 32 0
c gate 33 -31 -32 0
-31 -33 0
-32 -33 0
31 32 33 0
c gate 34 -27 33 0
-27 -34 0
33 -34 0
27 -33 34 0
c gate 35 12 34 0
12 -35 0
34 -35 0
-12 -34 35 0
c PO
35 0
